NAME 150_1_25_1
ROWS
 N COST
 L LK0
 L FK0
COLUMNS
 X0 COST 3.
 X0 LK0 -1.
 X0 FK0 0.
 X1 COST -6.
 X1 LK0 3.
 X1 FK0 0.
 X2 COST -9.
 X2 LK0 4.
 X2 FK0 0.
 X3 COST -1.
 X3 LK0 1.
 X3 FK0 1.
 X4 COST 2.
 X4 LK0 -4.
 X4 FK0 0.
 X5 COST -7.
 X5 LK0 1.
 X5 FK0 1.
 X6 COST 1.
 X6 LK0 4.
 X6 FK0 0.
 X7 COST 4.
 X7 LK0 -3.
 X7 FK0 1.
 X8 COST -1.
 X8 LK0 -5.
 X8 FK0 1.
 X9 COST 2.
 X9 LK0 2.
 X9 FK0 0.
 X10 COST -10.
 X10 LK0 1.
 X10 FK0 1.
 X11 COST 2.
 X11 LK0 3.
 X11 FK0 1.
 X12 COST -10.
 X12 LK0 4.
 X12 FK0 0.
 X13 COST -4.
 X13 LK0 0.
 X13 FK0 0.
 X14 COST 7.
 X14 LK0 -5.
 X14 FK0 1.
 X15 COST 10.
 X15 LK0 -3.
 X15 FK0 0.
 X16 COST 9.
 X16 LK0 3.
 X16 FK0 1.
 X17 COST 3.
 X17 LK0 -5.
 X17 FK0 1.
 X18 COST -1.
 X18 LK0 5.
 X18 FK0 1.
 X19 COST 2.
 X19 LK0 1.
 X19 FK0 0.
 X20 COST -6.
 X20 LK0 -5.
 X20 FK0 0.
 X21 COST -4.
 X21 LK0 -3.
 X21 FK0 0.
 X22 COST 4.
 X22 LK0 -1.
 X22 FK0 0.
 X23 COST -4.
 X23 LK0 1.
 X23 FK0 1.
 X24 COST -10.
 X24 LK0 1.
 X24 FK0 0.
 X25 COST -10.
 X25 LK0 2.
 X25 FK0 0.
 X26 COST 4.
 X26 LK0 3.
 X26 FK0 1.
 X27 COST 6.
 X27 LK0 2.
 X27 FK0 1.
 X28 COST 0.
 X28 LK0 3.
 X28 FK0 1.
 X29 COST 10.
 X29 LK0 0.
 X29 FK0 1.
 X30 COST 6.
 X30 LK0 5.
 X30 FK0 0.
 X31 COST -3.
 X31 LK0 2.
 X31 FK0 1.
 X32 COST -8.
 X32 LK0 1.
 X32 FK0 1.
 X33 COST 10.
 X33 LK0 4.
 X33 FK0 1.
 X34 COST 7.
 X34 LK0 4.
 X34 FK0 0.
 X35 COST 8.
 X35 LK0 3.
 X35 FK0 1.
 X36 COST -8.
 X36 LK0 0.
 X36 FK0 0.
 X37 COST -10.
 X37 LK0 5.
 X37 FK0 0.
 X38 COST -5.
 X38 LK0 4.
 X38 FK0 0.
 X39 COST 9.
 X39 LK0 1.
 X39 FK0 0.
 X40 COST -9.
 X40 LK0 3.
 X40 FK0 0.
 X41 COST -6.
 X41 LK0 5.
 X41 FK0 1.
 X42 COST -4.
 X42 LK0 -5.
 X42 FK0 1.
 X43 COST 9.
 X43 LK0 -4.
 X43 FK0 0.
 X44 COST -6.
 X44 LK0 -1.
 X44 FK0 0.
 X45 COST 0.
 X45 LK0 -1.
 X45 FK0 0.
 X46 COST 3.
 X46 LK0 -1.
 X46 FK0 0.
 X47 COST 3.
 X47 LK0 1.
 X47 FK0 0.
 X48 COST -5.
 X48 LK0 -5.
 X48 FK0 1.
 X49 COST -6.
 X49 LK0 -3.
 X49 FK0 0.
 X50 COST 9.
 X50 LK0 -4.
 X50 FK0 1.
 X51 COST -3.
 X51 LK0 3.
 X51 FK0 1.
 X52 COST 1.
 X52 LK0 2.
 X52 FK0 0.
 X53 COST 10.
 X53 LK0 3.
 X53 FK0 0.
 X54 COST 8.
 X54 LK0 5.
 X54 FK0 0.
 X55 COST -1.
 X55 LK0 -3.
 X55 FK0 0.
 X56 COST -10.
 X56 LK0 0.
 X56 FK0 0.
 X57 COST -1.
 X57 LK0 3.
 X57 FK0 1.
 X58 COST -8.
 X58 LK0 -5.
 X58 FK0 0.
 X59 COST 6.
 X59 LK0 -5.
 X59 FK0 0.
 X60 COST -10.
 X60 LK0 -5.
 X60 FK0 0.
 X61 COST -7.
 X61 LK0 5.
 X61 FK0 1.
 X62 COST 10.
 X62 LK0 3.
 X62 FK0 1.
 X63 COST -9.
 X63 LK0 -1.
 X63 FK0 0.
 X64 COST 10.
 X64 LK0 5.
 X64 FK0 1.
 X65 COST -8.
 X65 LK0 1.
 X65 FK0 0.
 X66 COST -4.
 X66 LK0 -1.
 X66 FK0 1.
 X67 COST 0.
 X67 LK0 -4.
 X67 FK0 0.
 X68 COST 1.
 X68 LK0 4.
 X68 FK0 0.
 X69 COST 4.
 X69 LK0 -4.
 X69 FK0 0.
 X70 COST 0.
 X70 LK0 -4.
 X70 FK0 0.
 X71 COST 10.
 X71 LK0 -1.
 X71 FK0 1.
 X72 COST 2.
 X72 LK0 2.
 X72 FK0 0.
 X73 COST 8.
 X73 LK0 0.
 X73 FK0 1.
 X74 COST -1.
 X74 LK0 -5.
 X74 FK0 0.
 X75 COST 0.
 X75 LK0 -1.
 X75 FK0 0.
 X76 COST -10.
 X76 LK0 4.
 X76 FK0 1.
 X77 COST 8.
 X77 LK0 1.
 X77 FK0 1.
 X78 COST 0.
 X78 LK0 -2.
 X78 FK0 1.
 X79 COST -6.
 X79 LK0 -5.
 X79 FK0 0.
 X80 COST -6.
 X80 LK0 -5.
 X80 FK0 1.
 X81 COST 2.
 X81 LK0 1.
 X81 FK0 1.
 X82 COST -4.
 X82 LK0 -4.
 X82 FK0 0.
 X83 COST 5.
 X83 LK0 2.
 X83 FK0 0.
 X84 COST -1.
 X84 LK0 1.
 X84 FK0 0.
 X85 COST 0.
 X85 LK0 5.
 X85 FK0 1.
 X86 COST -8.
 X86 LK0 -1.
 X86 FK0 1.
 X87 COST -2.
 X87 LK0 1.
 X87 FK0 1.
 X88 COST 7.
 X88 LK0 0.
 X88 FK0 0.
 X89 COST 8.
 X89 LK0 3.
 X89 FK0 0.
 X90 COST -3.
 X90 LK0 3.
 X90 FK0 0.
 X91 COST -2.
 X91 LK0 -2.
 X91 FK0 1.
 X92 COST 4.
 X92 LK0 -5.
 X92 FK0 0.
 X93 COST 1.
 X93 LK0 -4.
 X93 FK0 1.
 X94 COST 10.
 X94 LK0 0.
 X94 FK0 1.
 X95 COST -1.
 X95 LK0 -4.
 X95 FK0 1.
 X96 COST -5.
 X96 LK0 2.
 X96 FK0 1.
 X97 COST 8.
 X97 LK0 -4.
 X97 FK0 0.
 X98 COST 6.
 X98 LK0 5.
 X98 FK0 1.
 X99 COST 10.
 X99 LK0 0.
 X99 FK0 0.
 X100 COST 2.
 X100 LK0 5.
 X100 FK0 0.
 X101 COST 8.
 X101 LK0 4.
 X101 FK0 0.
 X102 COST -5.
 X102 LK0 -4.
 X102 FK0 0.
 X103 COST -7.
 X103 LK0 4.
 X103 FK0 1.
 X104 COST -3.
 X104 LK0 5.
 X104 FK0 0.
 X105 COST -3.
 X105 LK0 0.
 X105 FK0 1.
 X106 COST 9.
 X106 LK0 5.
 X106 FK0 0.
 X107 COST -5.
 X107 LK0 -3.
 X107 FK0 1.
 X108 COST -7.
 X108 LK0 2.
 X108 FK0 1.
 X109 COST 7.
 X109 LK0 -4.
 X109 FK0 0.
 X110 COST -10.
 X110 LK0 -1.
 X110 FK0 0.
 X111 COST 8.
 X111 LK0 3.
 X111 FK0 0.
 X112 COST 2.
 X112 LK0 -4.
 X112 FK0 0.
 X113 COST 4.
 X113 LK0 -2.
 X113 FK0 0.
 X114 COST 5.
 X114 LK0 3.
 X114 FK0 1.
 X115 COST 8.
 X115 LK0 3.
 X115 FK0 0.
 X116 COST -9.
 X116 LK0 4.
 X116 FK0 1.
 X117 COST 7.
 X117 LK0 -2.
 X117 FK0 0.
 X118 COST 7.
 X118 LK0 -4.
 X118 FK0 1.
 X119 COST 4.
 X119 LK0 3.
 X119 FK0 1.
 X120 COST -9.
 X120 LK0 1.
 X120 FK0 0.
 X121 COST -4.
 X121 LK0 3.
 X121 FK0 0.
 X122 COST 9.
 X122 LK0 -5.
 X122 FK0 1.
 X123 COST 0.
 X123 LK0 -2.
 X123 FK0 1.
 X124 COST -7.
 X124 LK0 -3.
 X124 FK0 1.
 X125 COST 2.
 X125 LK0 5.
 X125 FK0 1.
 X126 COST 10.
 X126 LK0 2.
 X126 FK0 1.
 X127 COST -10.
 X127 LK0 4.
 X127 FK0 0.
 X128 COST -9.
 X128 LK0 2.
 X128 FK0 0.
 X129 COST 3.
 X129 LK0 2.
 X129 FK0 0.
 X130 COST -9.
 X130 LK0 -3.
 X130 FK0 0.
 X131 COST 4.
 X131 LK0 2.
 X131 FK0 1.
 X132 COST -1.
 X132 LK0 -3.
 X132 FK0 0.
 X133 COST 6.
 X133 LK0 3.
 X133 FK0 1.
 X134 COST 8.
 X134 LK0 2.
 X134 FK0 0.
 X135 COST -7.
 X135 LK0 2.
 X135 FK0 1.
 X136 COST 8.
 X136 LK0 3.
 X136 FK0 1.
 X137 COST -4.
 X137 LK0 -2.
 X137 FK0 1.
 X138 COST 1.
 X138 LK0 -3.
 X138 FK0 1.
 X139 COST 3.
 X139 LK0 -2.
 X139 FK0 0.
 X140 COST 0.
 X140 LK0 3.
 X140 FK0 1.
 X141 COST 4.
 X141 LK0 -5.
 X141 FK0 1.
 X142 COST -6.
 X142 LK0 -5.
 X142 FK0 0.
 X143 COST -1.
 X143 LK0 3.
 X143 FK0 1.
 X144 COST 8.
 X144 LK0 5.
 X144 FK0 1.
 X145 COST 7.
 X145 LK0 2.
 X145 FK0 0.
 X146 COST 3.
 X146 LK0 -3.
 X146 FK0 0.
 X147 COST -6.
 X147 LK0 5.
 X147 FK0 1.
 X148 COST -4.
 X148 LK0 -5.
 X148 FK0 1.
 X149 COST -7.
 X149 LK0 3.
 X149 FK0 1.
 Y0 COST 4.
 Y0 LK0 0.
 Y0 FK0 5.
 Y1 COST 1.
 Y1 LK0 0.
 Y1 FK0 2.
 Y2 COST 2.
 Y2 LK0 0.
 Y2 FK0 2.
 Y3 COST 0.
 Y3 LK0 1.
 Y3 FK0 1.
 Y4 COST 9.
 Y4 LK0 1.
 Y4 FK0 0.
 Y5 COST 2.
 Y5 LK0 0.
 Y5 FK0 2.
 Y6 COST 10.
 Y6 LK0 0.
 Y6 FK0 2.
 Y7 COST 4.
 Y7 LK0 1.
 Y7 FK0 -3.
 Y8 COST 4.
 Y8 LK0 1.
 Y8 FK0 4.
 Y9 COST 10.
 Y9 LK0 0.
 Y9 FK0 -3.
 Y10 COST 1.
 Y10 LK0 1.
 Y10 FK0 3.
 Y11 COST 3.
 Y11 LK0 0.
 Y11 FK0 -5.
 Y12 COST 6.
 Y12 LK0 0.
 Y12 FK0 0.
 Y13 COST 8.
 Y13 LK0 1.
 Y13 FK0 -4.
 Y14 COST 3.
 Y14 LK0 1.
 Y14 FK0 2.
 Y15 COST 2.
 Y15 LK0 1.
 Y15 FK0 -3.
 Y16 COST 10.
 Y16 LK0 0.
 Y16 FK0 -3.
 Y17 COST 9.
 Y17 LK0 1.
 Y17 FK0 -2.
 Y18 COST 9.
 Y18 LK0 1.
 Y18 FK0 -2.
 Y19 COST 1.
 Y19 LK0 1.
 Y19 FK0 1.
 Y20 COST 0.
 Y20 LK0 0.
 Y20 FK0 4.
 Y21 COST 4.
 Y21 LK0 0.
 Y21 FK0 -5.
 Y22 COST 6.
 Y22 LK0 1.
 Y22 FK0 4.
 Y23 COST 0.
 Y23 LK0 0.
 Y23 FK0 0.
 Y24 COST 2.
 Y24 LK0 1.
 Y24 FK0 -2.
 Y25 COST 3.
 Y25 LK0 0.
 Y25 FK0 4.
 Y26 COST 5.
 Y26 LK0 0.
 Y26 FK0 1.
 Y27 COST 5.
 Y27 LK0 1.
 Y27 FK0 4.
 Y28 COST 2.
 Y28 LK0 1.
 Y28 FK0 4.
 Y29 COST 6.
 Y29 LK0 0.
 Y29 FK0 1.
 Y30 COST 8.
 Y30 LK0 0.
 Y30 FK0 -2.
 Y31 COST 9.
 Y31 LK0 0.
 Y31 FK0 3.
 Y32 COST 3.
 Y32 LK0 1.
 Y32 FK0 -1.
 Y33 COST 0.
 Y33 LK0 0.
 Y33 FK0 -5.
 Y34 COST 8.
 Y34 LK0 0.
 Y34 FK0 1.
 Y35 COST 8.
 Y35 LK0 0.
 Y35 FK0 5.
 Y36 COST 4.
 Y36 LK0 0.
 Y36 FK0 -2.
 Y37 COST 1.
 Y37 LK0 0.
 Y37 FK0 3.
 Y38 COST 4.
 Y38 LK0 1.
 Y38 FK0 1.
 Y39 COST 1.
 Y39 LK0 0.
 Y39 FK0 4.
 Y40 COST 4.
 Y40 LK0 1.
 Y40 FK0 2.
 Y41 COST 10.
 Y41 LK0 1.
 Y41 FK0 -2.
 Y42 COST 0.
 Y42 LK0 0.
 Y42 FK0 2.
 Y43 COST 4.
 Y43 LK0 0.
 Y43 FK0 -5.
 Y44 COST 10.
 Y44 LK0 0.
 Y44 FK0 0.
 Y45 COST 3.
 Y45 LK0 0.
 Y45 FK0 4.
 Y46 COST 8.
 Y46 LK0 1.
 Y46 FK0 5.
 Y47 COST 7.
 Y47 LK0 1.
 Y47 FK0 1.
 Y48 COST 10.
 Y48 LK0 1.
 Y48 FK0 3.
 Y49 COST 4.
 Y49 LK0 0.
 Y49 FK0 -2.
 Y50 COST 0.
 Y50 LK0 0.
 Y50 FK0 0.
 Y51 COST 3.
 Y51 LK0 1.
 Y51 FK0 1.
 Y52 COST 3.
 Y52 LK0 0.
 Y52 FK0 -5.
 Y53 COST 3.
 Y53 LK0 0.
 Y53 FK0 -2.
 Y54 COST 6.
 Y54 LK0 0.
 Y54 FK0 3.
 Y55 COST 0.
 Y55 LK0 1.
 Y55 FK0 5.
 Y56 COST 4.
 Y56 LK0 0.
 Y56 FK0 3.
 Y57 COST 10.
 Y57 LK0 0.
 Y57 FK0 3.
 Y58 COST 10.
 Y58 LK0 0.
 Y58 FK0 3.
 Y59 COST 10.
 Y59 LK0 0.
 Y59 FK0 1.
 Y60 COST 3.
 Y60 LK0 0.
 Y60 FK0 -3.
 Y61 COST 7.
 Y61 LK0 1.
 Y61 FK0 4.
 Y62 COST 7.
 Y62 LK0 0.
 Y62 FK0 -1.
 Y63 COST 7.
 Y63 LK0 0.
 Y63 FK0 -2.
 Y64 COST 0.
 Y64 LK0 0.
 Y64 FK0 5.
 Y65 COST 10.
 Y65 LK0 0.
 Y65 FK0 5.
 Y66 COST 6.
 Y66 LK0 1.
 Y66 FK0 5.
 Y67 COST 4.
 Y67 LK0 0.
 Y67 FK0 1.
 Y68 COST 5.
 Y68 LK0 1.
 Y68 FK0 -5.
 Y69 COST 1.
 Y69 LK0 1.
 Y69 FK0 -4.
 Y70 COST 5.
 Y70 LK0 0.
 Y70 FK0 -2.
 Y71 COST 1.
 Y71 LK0 0.
 Y71 FK0 -5.
 Y72 COST 10.
 Y72 LK0 1.
 Y72 FK0 -1.
 Y73 COST 0.
 Y73 LK0 0.
 Y73 FK0 -4.
 Y74 COST 7.
 Y74 LK0 1.
 Y74 FK0 0.
 Y75 COST 1.
 Y75 LK0 1.
 Y75 FK0 5.
 Y76 COST 0.
 Y76 LK0 1.
 Y76 FK0 4.
 Y77 COST 1.
 Y77 LK0 0.
 Y77 FK0 -3.
 Y78 COST 2.
 Y78 LK0 0.
 Y78 FK0 2.
 Y79 COST 5.
 Y79 LK0 0.
 Y79 FK0 -2.
 Y80 COST 1.
 Y80 LK0 1.
 Y80 FK0 -3.
 Y81 COST 7.
 Y81 LK0 0.
 Y81 FK0 -3.
 Y82 COST 3.
 Y82 LK0 1.
 Y82 FK0 2.
 Y83 COST 8.
 Y83 LK0 0.
 Y83 FK0 3.
 Y84 COST 1.
 Y84 LK0 1.
 Y84 FK0 -2.
 Y85 COST 8.
 Y85 LK0 0.
 Y85 FK0 2.
 Y86 COST 1.
 Y86 LK0 0.
 Y86 FK0 4.
 Y87 COST 5.
 Y87 LK0 0.
 Y87 FK0 2.
 Y88 COST 2.
 Y88 LK0 1.
 Y88 FK0 3.
 Y89 COST 9.
 Y89 LK0 1.
 Y89 FK0 4.
 Y90 COST 10.
 Y90 LK0 1.
 Y90 FK0 0.
 Y91 COST 9.
 Y91 LK0 1.
 Y91 FK0 2.
 Y92 COST 4.
 Y92 LK0 1.
 Y92 FK0 4.
 Y93 COST 2.
 Y93 LK0 0.
 Y93 FK0 -3.
 Y94 COST 5.
 Y94 LK0 0.
 Y94 FK0 3.
 Y95 COST 1.
 Y95 LK0 1.
 Y95 FK0 -1.
 Y96 COST 3.
 Y96 LK0 0.
 Y96 FK0 1.
 Y97 COST 4.
 Y97 LK0 1.
 Y97 FK0 -3.
 Y98 COST 7.
 Y98 LK0 0.
 Y98 FK0 1.
 Y99 COST 9.
 Y99 LK0 0.
 Y99 FK0 4.
 Y100 COST 3.
 Y100 LK0 1.
 Y100 FK0 5.
 Y101 COST 4.
 Y101 LK0 0.
 Y101 FK0 2.
 Y102 COST 5.
 Y102 LK0 0.
 Y102 FK0 -1.
 Y103 COST 0.
 Y103 LK0 0.
 Y103 FK0 3.
 Y104 COST 0.
 Y104 LK0 1.
 Y104 FK0 -1.
 Y105 COST 1.
 Y105 LK0 0.
 Y105 FK0 -5.
 Y106 COST 9.
 Y106 LK0 0.
 Y106 FK0 1.
 Y107 COST 1.
 Y107 LK0 1.
 Y107 FK0 4.
 Y108 COST 10.
 Y108 LK0 1.
 Y108 FK0 -1.
 Y109 COST 8.
 Y109 LK0 1.
 Y109 FK0 2.
 Y110 COST 1.
 Y110 LK0 1.
 Y110 FK0 0.
 Y111 COST 3.
 Y111 LK0 1.
 Y111 FK0 -5.
 Y112 COST 0.
 Y112 LK0 1.
 Y112 FK0 2.
 Y113 COST 9.
 Y113 LK0 1.
 Y113 FK0 -5.
 Y114 COST 9.
 Y114 LK0 0.
 Y114 FK0 4.
 Y115 COST 10.
 Y115 LK0 0.
 Y115 FK0 -2.
 Y116 COST 5.
 Y116 LK0 0.
 Y116 FK0 1.
 Y117 COST 4.
 Y117 LK0 0.
 Y117 FK0 -3.
 Y118 COST 0.
 Y118 LK0 1.
 Y118 FK0 0.
 Y119 COST 3.
 Y119 LK0 0.
 Y119 FK0 3.
 Y120 COST 9.
 Y120 LK0 1.
 Y120 FK0 2.
 Y121 COST 9.
 Y121 LK0 1.
 Y121 FK0 3.
 Y122 COST 8.
 Y122 LK0 1.
 Y122 FK0 -2.
 Y123 COST 10.
 Y123 LK0 1.
 Y123 FK0 4.
 Y124 COST 4.
 Y124 LK0 1.
 Y124 FK0 4.
 Y125 COST 8.
 Y125 LK0 0.
 Y125 FK0 0.
 Y126 COST 2.
 Y126 LK0 1.
 Y126 FK0 4.
 Y127 COST 7.
 Y127 LK0 1.
 Y127 FK0 -2.
 Y128 COST 9.
 Y128 LK0 1.
 Y128 FK0 3.
 Y129 COST 5.
 Y129 LK0 1.
 Y129 FK0 -1.
 Y130 COST 6.
 Y130 LK0 1.
 Y130 FK0 1.
 Y131 COST 1.
 Y131 LK0 0.
 Y131 FK0 -4.
 Y132 COST 1.
 Y132 LK0 1.
 Y132 FK0 -2.
 Y133 COST 6.
 Y133 LK0 1.
 Y133 FK0 -4.
 Y134 COST 4.
 Y134 LK0 0.
 Y134 FK0 1.
 Y135 COST 4.
 Y135 LK0 1.
 Y135 FK0 -5.
 Y136 COST 2.
 Y136 LK0 0.
 Y136 FK0 5.
 Y137 COST 10.
 Y137 LK0 0.
 Y137 FK0 -3.
 Y138 COST 8.
 Y138 LK0 1.
 Y138 FK0 -3.
 Y139 COST 2.
 Y139 LK0 1.
 Y139 FK0 5.
 Y140 COST 4.
 Y140 LK0 1.
 Y140 FK0 -1.
 Y141 COST 9.
 Y141 LK0 1.
 Y141 FK0 -2.
 Y142 COST 3.
 Y142 LK0 1.
 Y142 FK0 2.
 Y143 COST 5.
 Y143 LK0 0.
 Y143 FK0 2.
 Y144 COST 1.
 Y144 LK0 1.
 Y144 FK0 -4.
 Y145 COST 10.
 Y145 LK0 1.
 Y145 FK0 3.
 Y146 COST 1.
 Y146 LK0 1.
 Y146 FK0 1.
 Y147 COST 3.
 Y147 LK0 0.
 Y147 FK0 -5.
 Y148 COST 0.
 Y148 LK0 1.
 Y148 FK0 4.
 Y149 COST 6.
 Y149 LK0 1.
 Y149 FK0 2.
RHS
 RHS LK0 29.
 RHS FK0 36.
BOUNDS
 UI BOUND	X0	1.
 LI BOUND	X0	0.
 UI BOUND	X1	1.
 LI BOUND	X1	0.
 UI BOUND	X2	1.
 LI BOUND	X2	0.
 UI BOUND	X3	1.
 LI BOUND	X3	0.
 UI BOUND	X4	1.
 LI BOUND	X4	0.
 UI BOUND	X5	1.
 LI BOUND	X5	0.
 UI BOUND	X6	1.
 LI BOUND	X6	0.
 UI BOUND	X7	1.
 LI BOUND	X7	0.
 UI BOUND	X8	1.
 LI BOUND	X8	0.
 UI BOUND	X9	1.
 LI BOUND	X9	0.
 UI BOUND	X10	1.
 LI BOUND	X10	0.
 UI BOUND	X11	1.
 LI BOUND	X11	0.
 UI BOUND	X12	1.
 LI BOUND	X12	0.
 UI BOUND	X13	1.
 LI BOUND	X13	0.
 UI BOUND	X14	1.
 LI BOUND	X14	0.
 UI BOUND	X15	1.
 LI BOUND	X15	0.
 UI BOUND	X16	1.
 LI BOUND	X16	0.
 UI BOUND	X17	1.
 LI BOUND	X17	0.
 UI BOUND	X18	1.
 LI BOUND	X18	0.
 UI BOUND	X19	1.
 LI BOUND	X19	0.
 UI BOUND	X20	1.
 LI BOUND	X20	0.
 UI BOUND	X21	1.
 LI BOUND	X21	0.
 UI BOUND	X22	1.
 LI BOUND	X22	0.
 UI BOUND	X23	1.
 LI BOUND	X23	0.
 UI BOUND	X24	1.
 LI BOUND	X24	0.
 UI BOUND	X25	1.
 LI BOUND	X25	0.
 UI BOUND	X26	1.
 LI BOUND	X26	0.
 UI BOUND	X27	1.
 LI BOUND	X27	0.
 UI BOUND	X28	1.
 LI BOUND	X28	0.
 UI BOUND	X29	1.
 LI BOUND	X29	0.
 UI BOUND	X30	1.
 LI BOUND	X30	0.
 UI BOUND	X31	1.
 LI BOUND	X31	0.
 UI BOUND	X32	1.
 LI BOUND	X32	0.
 UI BOUND	X33	1.
 LI BOUND	X33	0.
 UI BOUND	X34	1.
 LI BOUND	X34	0.
 UI BOUND	X35	1.
 LI BOUND	X35	0.
 UI BOUND	X36	1.
 LI BOUND	X36	0.
 UI BOUND	X37	1.
 LI BOUND	X37	0.
 UI BOUND	X38	1.
 LI BOUND	X38	0.
 UI BOUND	X39	1.
 LI BOUND	X39	0.
 UI BOUND	X40	1.
 LI BOUND	X40	0.
 UI BOUND	X41	1.
 LI BOUND	X41	0.
 UI BOUND	X42	1.
 LI BOUND	X42	0.
 UI BOUND	X43	1.
 LI BOUND	X43	0.
 UI BOUND	X44	1.
 LI BOUND	X44	0.
 UI BOUND	X45	1.
 LI BOUND	X45	0.
 UI BOUND	X46	1.
 LI BOUND	X46	0.
 UI BOUND	X47	1.
 LI BOUND	X47	0.
 UI BOUND	X48	1.
 LI BOUND	X48	0.
 UI BOUND	X49	1.
 LI BOUND	X49	0.
 UI BOUND	X50	1.
 LI BOUND	X50	0.
 UI BOUND	X51	1.
 LI BOUND	X51	0.
 UI BOUND	X52	1.
 LI BOUND	X52	0.
 UI BOUND	X53	1.
 LI BOUND	X53	0.
 UI BOUND	X54	1.
 LI BOUND	X54	0.
 UI BOUND	X55	1.
 LI BOUND	X55	0.
 UI BOUND	X56	1.
 LI BOUND	X56	0.
 UI BOUND	X57	1.
 LI BOUND	X57	0.
 UI BOUND	X58	1.
 LI BOUND	X58	0.
 UI BOUND	X59	1.
 LI BOUND	X59	0.
 UI BOUND	X60	1.
 LI BOUND	X60	0.
 UI BOUND	X61	1.
 LI BOUND	X61	0.
 UI BOUND	X62	1.
 LI BOUND	X62	0.
 UI BOUND	X63	1.
 LI BOUND	X63	0.
 UI BOUND	X64	1.
 LI BOUND	X64	0.
 UI BOUND	X65	1.
 LI BOUND	X65	0.
 UI BOUND	X66	1.
 LI BOUND	X66	0.
 UI BOUND	X67	1.
 LI BOUND	X67	0.
 UI BOUND	X68	1.
 LI BOUND	X68	0.
 UI BOUND	X69	1.
 LI BOUND	X69	0.
 UI BOUND	X70	1.
 LI BOUND	X70	0.
 UI BOUND	X71	1.
 LI BOUND	X71	0.
 UI BOUND	X72	1.
 LI BOUND	X72	0.
 UI BOUND	X73	1.
 LI BOUND	X73	0.
 UI BOUND	X74	1.
 LI BOUND	X74	0.
 UI BOUND	X75	1.
 LI BOUND	X75	0.
 UI BOUND	X76	1.
 LI BOUND	X76	0.
 UI BOUND	X77	1.
 LI BOUND	X77	0.
 UI BOUND	X78	1.
 LI BOUND	X78	0.
 UI BOUND	X79	1.
 LI BOUND	X79	0.
 UI BOUND	X80	1.
 LI BOUND	X80	0.
 UI BOUND	X81	1.
 LI BOUND	X81	0.
 UI BOUND	X82	1.
 LI BOUND	X82	0.
 UI BOUND	X83	1.
 LI BOUND	X83	0.
 UI BOUND	X84	1.
 LI BOUND	X84	0.
 UI BOUND	X85	1.
 LI BOUND	X85	0.
 UI BOUND	X86	1.
 LI BOUND	X86	0.
 UI BOUND	X87	1.
 LI BOUND	X87	0.
 UI BOUND	X88	1.
 LI BOUND	X88	0.
 UI BOUND	X89	1.
 LI BOUND	X89	0.
 UI BOUND	X90	1.
 LI BOUND	X90	0.
 UI BOUND	X91	1.
 LI BOUND	X91	0.
 UI BOUND	X92	1.
 LI BOUND	X92	0.
 UI BOUND	X93	1.
 LI BOUND	X93	0.
 UI BOUND	X94	1.
 LI BOUND	X94	0.
 UI BOUND	X95	1.
 LI BOUND	X95	0.
 UI BOUND	X96	1.
 LI BOUND	X96	0.
 UI BOUND	X97	1.
 LI BOUND	X97	0.
 UI BOUND	X98	1.
 LI BOUND	X98	0.
 UI BOUND	X99	1.
 LI BOUND	X99	0.
 UI BOUND	X100	1.
 LI BOUND	X100	0.
 UI BOUND	X101	1.
 LI BOUND	X101	0.
 UI BOUND	X102	1.
 LI BOUND	X102	0.
 UI BOUND	X103	1.
 LI BOUND	X103	0.
 UI BOUND	X104	1.
 LI BOUND	X104	0.
 UI BOUND	X105	1.
 LI BOUND	X105	0.
 UI BOUND	X106	1.
 LI BOUND	X106	0.
 UI BOUND	X107	1.
 LI BOUND	X107	0.
 UI BOUND	X108	1.
 LI BOUND	X108	0.
 UI BOUND	X109	1.
 LI BOUND	X109	0.
 UI BOUND	X110	1.
 LI BOUND	X110	0.
 UI BOUND	X111	1.
 LI BOUND	X111	0.
 UI BOUND	X112	1.
 LI BOUND	X112	0.
 UI BOUND	X113	1.
 LI BOUND	X113	0.
 UI BOUND	X114	1.
 LI BOUND	X114	0.
 UI BOUND	X115	1.
 LI BOUND	X115	0.
 UI BOUND	X116	1.
 LI BOUND	X116	0.
 UI BOUND	X117	1.
 LI BOUND	X117	0.
 UI BOUND	X118	1.
 LI BOUND	X118	0.
 UI BOUND	X119	1.
 LI BOUND	X119	0.
 UI BOUND	X120	1.
 LI BOUND	X120	0.
 UI BOUND	X121	1.
 LI BOUND	X121	0.
 UI BOUND	X122	1.
 LI BOUND	X122	0.
 UI BOUND	X123	1.
 LI BOUND	X123	0.
 UI BOUND	X124	1.
 LI BOUND	X124	0.
 UI BOUND	X125	1.
 LI BOUND	X125	0.
 UI BOUND	X126	1.
 LI BOUND	X126	0.
 UI BOUND	X127	1.
 LI BOUND	X127	0.
 UI BOUND	X128	1.
 LI BOUND	X128	0.
 UI BOUND	X129	1.
 LI BOUND	X129	0.
 UI BOUND	X130	1.
 LI BOUND	X130	0.
 UI BOUND	X131	1.
 LI BOUND	X131	0.
 UI BOUND	X132	1.
 LI BOUND	X132	0.
 UI BOUND	X133	1.
 LI BOUND	X133	0.
 UI BOUND	X134	1.
 LI BOUND	X134	0.
 UI BOUND	X135	1.
 LI BOUND	X135	0.
 UI BOUND	X136	1.
 LI BOUND	X136	0.
 UI BOUND	X137	1.
 LI BOUND	X137	0.
 UI BOUND	X138	1.
 LI BOUND	X138	0.
 UI BOUND	X139	1.
 LI BOUND	X139	0.
 UI BOUND	X140	1.
 LI BOUND	X140	0.
 UI BOUND	X141	1.
 LI BOUND	X141	0.
 UI BOUND	X142	1.
 LI BOUND	X142	0.
 UI BOUND	X143	1.
 LI BOUND	X143	0.
 UI BOUND	X144	1.
 LI BOUND	X144	0.
 UI BOUND	X145	1.
 LI BOUND	X145	0.
 UI BOUND	X146	1.
 LI BOUND	X146	0.
 UI BOUND	X147	1.
 LI BOUND	X147	0.
 UI BOUND	X148	1.
 LI BOUND	X148	0.
 UI BOUND	X149	1.
 LI BOUND	X149	0.
 UI BOUND	Y0	1.
 LI BOUND	Y0	0.
 UI BOUND	Y1	1.
 LI BOUND	Y1	0.
 UI BOUND	Y2	1.
 LI BOUND	Y2	0.
 UI BOUND	Y3	1.
 LI BOUND	Y3	0.
 UI BOUND	Y4	1.
 LI BOUND	Y4	0.
 UI BOUND	Y5	1.
 LI BOUND	Y5	0.
 UI BOUND	Y6	1.
 LI BOUND	Y6	0.
 UI BOUND	Y7	1.
 LI BOUND	Y7	0.
 UI BOUND	Y8	1.
 LI BOUND	Y8	0.
 UI BOUND	Y9	1.
 LI BOUND	Y9	0.
 UI BOUND	Y10	1.
 LI BOUND	Y10	0.
 UI BOUND	Y11	1.
 LI BOUND	Y11	0.
 UI BOUND	Y12	1.
 LI BOUND	Y12	0.
 UI BOUND	Y13	1.
 LI BOUND	Y13	0.
 UI BOUND	Y14	1.
 LI BOUND	Y14	0.
 UI BOUND	Y15	1.
 LI BOUND	Y15	0.
 UI BOUND	Y16	1.
 LI BOUND	Y16	0.
 UI BOUND	Y17	1.
 LI BOUND	Y17	0.
 UI BOUND	Y18	1.
 LI BOUND	Y18	0.
 UI BOUND	Y19	1.
 LI BOUND	Y19	0.
 UI BOUND	Y20	1.
 LI BOUND	Y20	0.
 UI BOUND	Y21	1.
 LI BOUND	Y21	0.
 UI BOUND	Y22	1.
 LI BOUND	Y22	0.
 UI BOUND	Y23	1.
 LI BOUND	Y23	0.
 UI BOUND	Y24	1.
 LI BOUND	Y24	0.
 UI BOUND	Y25	1.
 LI BOUND	Y25	0.
 UI BOUND	Y26	1.
 LI BOUND	Y26	0.
 UI BOUND	Y27	1.
 LI BOUND	Y27	0.
 UI BOUND	Y28	1.
 LI BOUND	Y28	0.
 UI BOUND	Y29	1.
 LI BOUND	Y29	0.
 UI BOUND	Y30	1.
 LI BOUND	Y30	0.
 UI BOUND	Y31	1.
 LI BOUND	Y31	0.
 UI BOUND	Y32	1.
 LI BOUND	Y32	0.
 UI BOUND	Y33	1.
 LI BOUND	Y33	0.
 UI BOUND	Y34	1.
 LI BOUND	Y34	0.
 UI BOUND	Y35	1.
 LI BOUND	Y35	0.
 UI BOUND	Y36	1.
 LI BOUND	Y36	0.
 UI BOUND	Y37	1.
 LI BOUND	Y37	0.
 UI BOUND	Y38	1.
 LI BOUND	Y38	0.
 UI BOUND	Y39	1.
 LI BOUND	Y39	0.
 UI BOUND	Y40	1.
 LI BOUND	Y40	0.
 UI BOUND	Y41	1.
 LI BOUND	Y41	0.
 UI BOUND	Y42	1.
 LI BOUND	Y42	0.
 UI BOUND	Y43	1.
 LI BOUND	Y43	0.
 UI BOUND	Y44	1.
 LI BOUND	Y44	0.
 UI BOUND	Y45	1.
 LI BOUND	Y45	0.
 UI BOUND	Y46	1.
 LI BOUND	Y46	0.
 UI BOUND	Y47	1.
 LI BOUND	Y47	0.
 UI BOUND	Y48	1.
 LI BOUND	Y48	0.
 UI BOUND	Y49	1.
 LI BOUND	Y49	0.
 UI BOUND	Y50	1.
 LI BOUND	Y50	0.
 UI BOUND	Y51	1.
 LI BOUND	Y51	0.
 UI BOUND	Y52	1.
 LI BOUND	Y52	0.
 UI BOUND	Y53	1.
 LI BOUND	Y53	0.
 UI BOUND	Y54	1.
 LI BOUND	Y54	0.
 UI BOUND	Y55	1.
 LI BOUND	Y55	0.
 UI BOUND	Y56	1.
 LI BOUND	Y56	0.
 UI BOUND	Y57	1.
 LI BOUND	Y57	0.
 UI BOUND	Y58	1.
 LI BOUND	Y58	0.
 UI BOUND	Y59	1.
 LI BOUND	Y59	0.
 UI BOUND	Y60	1.
 LI BOUND	Y60	0.
 UI BOUND	Y61	1.
 LI BOUND	Y61	0.
 UI BOUND	Y62	1.
 LI BOUND	Y62	0.
 UI BOUND	Y63	1.
 LI BOUND	Y63	0.
 UI BOUND	Y64	1.
 LI BOUND	Y64	0.
 UI BOUND	Y65	1.
 LI BOUND	Y65	0.
 UI BOUND	Y66	1.
 LI BOUND	Y66	0.
 UI BOUND	Y67	1.
 LI BOUND	Y67	0.
 UI BOUND	Y68	1.
 LI BOUND	Y68	0.
 UI BOUND	Y69	1.
 LI BOUND	Y69	0.
 UI BOUND	Y70	1.
 LI BOUND	Y70	0.
 UI BOUND	Y71	1.
 LI BOUND	Y71	0.
 UI BOUND	Y72	1.
 LI BOUND	Y72	0.
 UI BOUND	Y73	1.
 LI BOUND	Y73	0.
 UI BOUND	Y74	1.
 LI BOUND	Y74	0.
 UI BOUND	Y75	1.
 LI BOUND	Y75	0.
 UI BOUND	Y76	1.
 LI BOUND	Y76	0.
 UI BOUND	Y77	1.
 LI BOUND	Y77	0.
 UI BOUND	Y78	1.
 LI BOUND	Y78	0.
 UI BOUND	Y79	1.
 LI BOUND	Y79	0.
 UI BOUND	Y80	1.
 LI BOUND	Y80	0.
 UI BOUND	Y81	1.
 LI BOUND	Y81	0.
 UI BOUND	Y82	1.
 LI BOUND	Y82	0.
 UI BOUND	Y83	1.
 LI BOUND	Y83	0.
 UI BOUND	Y84	1.
 LI BOUND	Y84	0.
 UI BOUND	Y85	1.
 LI BOUND	Y85	0.
 UI BOUND	Y86	1.
 LI BOUND	Y86	0.
 UI BOUND	Y87	1.
 LI BOUND	Y87	0.
 UI BOUND	Y88	1.
 LI BOUND	Y88	0.
 UI BOUND	Y89	1.
 LI BOUND	Y89	0.
 UI BOUND	Y90	1.
 LI BOUND	Y90	0.
 UI BOUND	Y91	1.
 LI BOUND	Y91	0.
 UI BOUND	Y92	1.
 LI BOUND	Y92	0.
 UI BOUND	Y93	1.
 LI BOUND	Y93	0.
 UI BOUND	Y94	1.
 LI BOUND	Y94	0.
 UI BOUND	Y95	1.
 LI BOUND	Y95	0.
 UI BOUND	Y96	1.
 LI BOUND	Y96	0.
 UI BOUND	Y97	1.
 LI BOUND	Y97	0.
 UI BOUND	Y98	1.
 LI BOUND	Y98	0.
 UI BOUND	Y99	1.
 LI BOUND	Y99	0.
 UI BOUND	Y100	1.
 LI BOUND	Y100	0.
 UI BOUND	Y101	1.
 LI BOUND	Y101	0.
 UI BOUND	Y102	1.
 LI BOUND	Y102	0.
 UI BOUND	Y103	1.
 LI BOUND	Y103	0.
 UI BOUND	Y104	1.
 LI BOUND	Y104	0.
 UI BOUND	Y105	1.
 LI BOUND	Y105	0.
 UI BOUND	Y106	1.
 LI BOUND	Y106	0.
 UI BOUND	Y107	1.
 LI BOUND	Y107	0.
 UI BOUND	Y108	1.
 LI BOUND	Y108	0.
 UI BOUND	Y109	1.
 LI BOUND	Y109	0.
 UI BOUND	Y110	1.
 LI BOUND	Y110	0.
 UI BOUND	Y111	1.
 LI BOUND	Y111	0.
 UI BOUND	Y112	1.
 LI BOUND	Y112	0.
 UI BOUND	Y113	1.
 LI BOUND	Y113	0.
 UI BOUND	Y114	1.
 LI BOUND	Y114	0.
 UI BOUND	Y115	1.
 LI BOUND	Y115	0.
 UI BOUND	Y116	1.
 LI BOUND	Y116	0.
 UI BOUND	Y117	1.
 LI BOUND	Y117	0.
 UI BOUND	Y118	1.
 LI BOUND	Y118	0.
 UI BOUND	Y119	1.
 LI BOUND	Y119	0.
 UI BOUND	Y120	1.
 LI BOUND	Y120	0.
 UI BOUND	Y121	1.
 LI BOUND	Y121	0.
 UI BOUND	Y122	1.
 LI BOUND	Y122	0.
 UI BOUND	Y123	1.
 LI BOUND	Y123	0.
 UI BOUND	Y124	1.
 LI BOUND	Y124	0.
 UI BOUND	Y125	1.
 LI BOUND	Y125	0.
 UI BOUND	Y126	1.
 LI BOUND	Y126	0.
 UI BOUND	Y127	1.
 LI BOUND	Y127	0.
 UI BOUND	Y128	1.
 LI BOUND	Y128	0.
 UI BOUND	Y129	1.
 LI BOUND	Y129	0.
 UI BOUND	Y130	1.
 LI BOUND	Y130	0.
 UI BOUND	Y131	1.
 LI BOUND	Y131	0.
 UI BOUND	Y132	1.
 LI BOUND	Y132	0.
 UI BOUND	Y133	1.
 LI BOUND	Y133	0.
 UI BOUND	Y134	1.
 LI BOUND	Y134	0.
 UI BOUND	Y135	1.
 LI BOUND	Y135	0.
 UI BOUND	Y136	1.
 LI BOUND	Y136	0.
 UI BOUND	Y137	1.
 LI BOUND	Y137	0.
 UI BOUND	Y138	1.
 LI BOUND	Y138	0.
 UI BOUND	Y139	1.
 LI BOUND	Y139	0.
 UI BOUND	Y140	1.
 LI BOUND	Y140	0.
 UI BOUND	Y141	1.
 LI BOUND	Y141	0.
 UI BOUND	Y142	1.
 LI BOUND	Y142	0.
 UI BOUND	Y143	1.
 LI BOUND	Y143	0.
 UI BOUND	Y144	1.
 LI BOUND	Y144	0.
 UI BOUND	Y145	1.
 LI BOUND	Y145	0.
 UI BOUND	Y146	1.
 LI BOUND	Y146	0.
 UI BOUND	Y147	1.
 LI BOUND	Y147	0.
 UI BOUND	Y148	1.
 LI BOUND	Y148	0.
 UI BOUND	Y149	1.
 LI BOUND	Y149	0.
ENDATA
